12 40 9 10
5 18 3 5 3 10 18 17 3 13 16 17 17 1 14 8 15 19 10 20 20 8 16 10 6 2 2 17 15 17 20 10 18 20 3 2 15 2 3 10 
1.91 0.28 2.93 7.17 3.49 3.32 4.65 7.25 4.5 3.22 1.97 7.5 6.02 3.56 6.58 6.54 5.65 7.58 2.67 5.73 5.63 3.75 3.15 7.76 7.97 1.23 7.11 6.2 5.59 7.24 5.94 2.58 1.45 5.83 3.65 4.21 5.92 6.04 4.82 2.24 
7.94 5.01 1.28 1.04 2.63 0.17 1.18 0.63 3.81 0.66 0.17 7.33 4.52 7.84 3 4.88 7.84 3.09 3.79 6.61 4.78 0.9 7.58 7.67 6.09 1.95 1.82 0.04 2.23 0.83 1.16 4.94 4.17 6.88 6.58 1.57 7.59 5.2 0.73 6.44 
2.85 0.44 6.84 4.13 7.72 6.8 2.46 3.21 5.14 7.97 3.29 2.61 0.77 7.39 0.13 6.98 3.02 1.79 1.21 2.4 5.18 6.53 4.81 0.04 2.85 6.53 6.88 7.92 5.62 7.55 2.82 3.04 6.79 6.84 5.86 6.02 5.02 7.56 4.86 5.11 
3.71 7.89 5.22 6.67 5.8 0.5 7.95 1.22 7.69 1.34 4.03 4.72 1.66 7.99 3.68 6.07 6.09 4.57 6.54 1.09 3.46 5.65 2.61 6.34 7.5 6.59 3.09 2 7.41 3.96 4.74 2.9 4.64 5.22 3.66 0.37 2.33 3.36 4.92 4.35 
4.64 0.18 6.47 2.93 0.81 0.14 5.44 5.92 1.17 5.85 3.76 6.07 0.12 6.72 0.86 3.5 4.02 4.54 7.22 0.06 2.8 1.92 7.58 7.64 7.81 2.16 6.64 0.89 7.13 4.85 4.45 5.46 4.96 5.06 7.24 6.54 5.63 3.86 6.45 5.21 
3.65 2.61 0.05 2.57 1.6 5.52 1.17 2.35 4.83 5.59 5.01 2.41 0.28 4.33 4.88 5.45 2 7.05 2.93 7.39 2.92 1.11 3.62 3.43 6.11 4.47 5.57 6.75 4.62 4.57 0.65 3.69 3.08 5.72 7.74 0.16 1.78 3.86 4.72 3.96 
4.81 6.03 0.95 5.12 0.84 7.36 0.98 0.43 3.04 2.25 1.97 1.66 0.58 6.97 5.24 6.28 3.28 6.84 5.84 6.92 1.93 7.85 0.35 2.04 2.36 1.49 3.11 7.02 4.47 5.34 7.66 1.33 0.06 6.21 3.57 6.67 4.81 1.5 6.68 6.24 
0.11 5.52 2.58 4.04 6.31 5.14 4.09 3.79 0.48 2.86 0.62 1.97 5.28 4.42 3.63 6.05 6.3 6.19 7.08 6.29 7.9 5.69 4.72 0.84 4.41 3.93 7.29 2.72 3.97 1.47 7.82 2.93 1.79 7.23 2.9 6.73 5.51 7.04 0.77 2.42 
1.6 1.17 7.64 1.32 0.36 6.75 4.73 0.96 6.99 6.74 5.1 7.75 5.44 1.28 4.45 0.89 5.13 6.19 7.05 4.62 2.02 6.11 7.33 0.72 3.61 1.68 3.63 6.89 6.7 6.42 5.13 2.62 6.01 6.77 7.03 6.09 1.59 4.14 7.88 6.2 
4 4 4 4 4 4 4 4 4 4 4 4 4 4 4 4 4 4 4 4 4 4 4 4 4 4 4 4 4 4 4 4 4 4 4 4 4 4 4 4 
3.28 3.25 3.96 1.08 2.92 6.53 0.95 7.91 0.02 3.41 1.33 3.13 6.23 2.08 2.76 1.24 6.74 0.83 2.73 5.32 0.04 6.39 1.84 2.33 3.4 3.24 7.69 1.02 5.71 3.42 7.96 2.66 0.53 3.52 2.61 5.36 2.91 4.26 1.47 4.45 
4.46 2.44 0.45 2.3 6.46 3.31 5.83 5.59 6 7.49 3.15 3.29 2.49 1.1 0.55 0.5 3.38 4.36 0.31 1.92 5.06 4.8 3.7 1.48 5.48 7.51 0.08 2.41 2.58 5.49 1.96 3.74 4.67 7.63 7.37 7.35 2.92 7.8 4.31 7.92 
1 1 1 1 1 1 1 1 1 1 1 1 1 1 1 1 1 1 1 1 1 1 1 1 1 1 1 1 1 1 1 1 1 1 1 1 1 1 1 1 
1 1 1 1 1 1 1 1 1 1 1 1 1 1 1 1 1 1 1 1 1 1 1 1 1 1 1 1 1 1 1 1 1 1 1 1 1 1 1 1 
1 1 1 1 1 1 1 1 1 1 1 1 1 1 1 1 1 1 1 1 1 1 1 1 1 1 1 1 1 1 1 1 1 1 1 1 1 1 1 1 
1 1 1 1 1 1 1 1 1 1 1 1 1 1 1 1 1 1 1 1 1 1 1 1 1 1 1 1 1 1 1 1 1 1 1 1 1 1 1 1 
1 1 1 1 1 1 1 1 1 1 1 1 1 1 1 1 1 1 1 1 1 1 1 1 1 1 1 1 1 1 1 1 1 1 1 1 1 1 1 1 
1 1 1 1 1 1 1 1 1 1 1 1 1 1 1 1 1 1 1 1 1 1 1 1 1 1 1 1 1 1 1 1 1 1 1 1 1 1 1 1 
1 1 1 1 1 1 1 1 1 1 1 1 1 1 1 1 1 1 1 1 1 1 1 1 1 1 1 1 1 1 1 1 1 1 1 1 1 1 1 1 
1 1 1 1 1 1 1 1 1 1 1 1 1 1 1 1 1 1 1 1 1 1 1 1 1 1 1 1 1 1 1 1 1 1 1 1 1 1 1 1 
1 1 1 1 1 1 1 1 1 1 1 1 1 1 1 1 1 1 1 1 1 1 1 1 1 1 1 1 1 1 1 1 1 1 1 1 1 1 1 1 
1 1 1 1 1 1 1 1 1 1 1 1 1 1 1 1 1 1 1 1 1 1 1 1 1 1 1 1 1 1 1 1 1 1 1 1 1 1 1 1 
1 1 1 1 1 1 1 1 1 1 1 1 1 1 1 1 1 1 1 1 1 1 1 1 1 1 1 1 1 1 1 1 1 1 1 1 1 1 1 1 
1 1 1 1 1 1 1 1 1 1 1 1 1 1 1 1 1 1 1 1 1 1 1 1 1 1 1 1 1 1 1 1 1 1 1 1 1 1 1 1 
0.01 0.01 0.01 0.01 0.01 0.01 0.01 0.01 0.01 0.01 0.01 0.01 0.01 0.01 0.01 0.01 0.01 0.01 0.01 0.01 0.01 0.01 0.01 0.01 0.01 0.01 0.01 0.01 0.01 0.01 0.01 0.01 0.01 0.01 0.01 0.01 0.01 0.01 0.01 0.01 
0.02 0.02 0.02 0.02 0.02 0.02 0.02 0.02 0.02 0.02 0.02 0.02 0.02 0.02 0.02 0.02 0.02 0.02 0.02 0.02 0.02 0.02 0.02 0.02 0.02 0.02 0.02 0.02 0.02 0.02 0.02 0.02 0.02 0.02 0.02 0.02 0.02 0.02 0.02 0.02 
0.03 0.03 0.03 0.03 0.03 0.03 0.03 0.03 0.03 0.03 0.03 0.03 0.03 0.03 0.03 0.03 0.03 0.03 0.03 0.03 0.03 0.03 0.03 0.03 0.03 0.03 0.03 0.03 0.03 0.03 0.03 0.03 0.03 0.03 0.03 0.03 0.03 0.03 0.03 0.03 
0.04 0.04 0.04 0.04 0.04 0.04 0.04 0.04 0.04 0.04 0.04 0.04 0.04 0.04 0.04 0.04 0.04 0.04 0.04 0.04 0.04 0.04 0.04 0.04 0.04 0.04 0.04 0.04 0.04 0.04 0.04 0.04 0.04 0.04 0.04 0.04 0.04 0.04 0.04 0.04 
0.05 0.05 0.05 0.05 0.05 0.05 0.05 0.05 0.05 0.05 0.05 0.05 0.05 0.05 0.05 0.05 0.05 0.05 0.05 0.05 0.05 0.05 0.05 0.05 0.05 0.05 0.05 0.05 0.05 0.05 0.05 0.05 0.05 0.05 0.05 0.05 0.05 0.05 0.05 0.05 
0.06 0.06 0.06 0.06 0.06 0.06 0.06 0.06 0.06 0.06 0.06 0.06 0.06 0.06 0.06 0.06 0.06 0.06 0.06 0.06 0.06 0.06 0.06 0.06 0.06 0.06 0.06 0.06 0.06 0.06 0.06 0.06 0.06 0.06 0.06 0.06 0.06 0.06 0.06 0.06 
0.07 0.07 0.07 0.07 0.07 0.07 0.07 0.07 0.07 0.07 0.07 0.07 0.07 0.07 0.07 0.07 0.07 0.07 0.07 0.07 0.07 0.07 0.07 0.07 0.07 0.07 0.07 0.07 0.07 0.07 0.07 0.07 0.07 0.07 0.07 0.07 0.07 0.07 0.07 0.07 
0.08 0.08 0.08 0.08 0.08 0.08 0.08 0.08 0.08 0.08 0.08 0.08 0.08 0.08 0.08 0.08 0.08 0.08 0.08 0.08 0.08 0.08 0.08 0.08 0.08 0.08 0.08 0.08 0.08 0.08 0.08 0.08 0.08 0.08 0.08 0.08 0.08 0.08 0.08 0.08 
0.09 0.09 0.09 0.09 0.09 0.09 0.09 0.09 0.09 0.09 0.09 0.09 0.09 0.09 0.09 0.09 0.09 0.09 0.09 0.09 0.09 0.09 0.09 0.09 0.09 0.09 0.09 0.09 0.09 0.09 0.09 0.09 0.09 0.09 0.09 0.09 0.09 0.09 0.09 0.09 
0.1 0.1 0.1 0.1 0.1 0.1 0.1 0.1 0.1 0.1 0.1 0.1 0.1 0.1 0.1 0.1 0.1 0.1 0.1 0.1 0.1 0.1 0.1 0.1 0.1 0.1 0.1 0.1 0.1 0.1 0.1 0.1 0.1 0.1 0.1 0.1 0.1 0.1 0.1 0.1 
0.5 0.5 0.5 0.5 0.5 0.5 0.5 0.5 0.5 0.5 0.5 0.5 0.5 0.5 0.5 0.5 0.5 0.5 0.5 0.5 0.5 0.5 0.5 0.5 0.5 0.5 0.5 0.5 0.5 0.5 0.5 0.5 0.5 0.5 0.5 0.5 0.5 0.5 0.5 0.5 
1 1 1 1 1 1 1 1 1 1 1 1 1 1 1 1 1 1 1 1 1 1 1 1 1 1 1 1 1 1 1 1 1 1 1 1 1 1 1 1 
